letting n =  10
letting blocks =  [[1, 6], [1, 10], [2, 2], [2, 3], [2, 5], [3, 2], [3, 5], [3, 7], [4, 1], [4, 2], [4, 4], [4, 7], [5, 3], [5, 6], [5, 7], [5, 9], [5, 10], [6, 2], [6, 3], [6, 5], [7, 3], [7, 10], [8, 3], [8, 6], [9, 2], [10, 10]]
